p cnf 256 1
256 0
w 1 0.626868
w 2 1 0.486954
w 2 -1 0.0164446
w 3 2 0
w 3 -2 1
w 4 3 0.78684
w 4 -3 0.0117939
w 5 4 1
w 5 -4 0
w 6 5 0.124409
w 6 -5 0.657998
w 7 6 1
w 7 -6 0
w 8 7 1
w 8 -7 0
w 9 8 1
w 9 -8 0
w 10 9 1
w 10 -9 0
w 11 10 1
w 11 -10 0
w 12 11 1
w 12 -11 0
w 13 12 0.966296
w 13 -12 0.571672
w 14 13 0
w 14 -13 1
w 15 14 1
w 15 -14 0
w 16 15 1
w 16 -15 0
w 17 1 0
w 17 -1 1
w 18 17 2 1
w 18 17 -2 1
w 18 -17 2 1
w 18 -17 -2 0
w 19 18 3 0.502922
w 19 18 -3 0.499018
w 19 -18 3 0.00485195
w 19 -18 -3 0.0185602
w 20 19 4 0.293412
w 20 19 -4 0.647238
w 20 -19 4 0.290471
w 20 -19 -4 0.403811
w 21 20 5 1
w 21 20 -5 0
w 21 -20 5 1
w 21 -20 -5 0
w 22 21 6 1
w 22 21 -6 0
w 22 -21 6 0
w 22 -21 -6 1
w 23 22 7 0.167311
w 23 22 -7 0.608856
w 23 -22 7 0.0221333
w 23 -22 -7 0.719078
w 24 23 8 0
w 24 23 -8 0
w 24 -23 8 0
w 24 -23 -8 1
w 25 24 9 0.576974
w 25 24 -9 0.992226
w 25 -24 9 0.397721
w 25 -24 -9 0.581826
w 26 25 10 0
w 26 25 -10 1
w 26 -25 10 1
w 26 -25 -10 1
w 27 26 11 1
w 27 26 -11 0
w 27 -26 11 1
w 27 -26 -11 0
w 28 27 12 0
w 28 27 -12 1
w 28 -27 12 1
w 28 -27 -12 1
w 29 28 13 0
w 29 28 -13 0
w 29 -28 13 1
w 29 -28 -13 0
w 30 29 14 1
w 30 29 -14 0
w 30 -29 14 0
w 30 -29 -14 1
w 31 30 15 1
w 31 30 -15 1
w 31 -30 15 0
w 31 -30 -15 1
w 32 31 16 1
w 32 31 -16 1
w 32 -31 16 0
w 32 -31 -16 0
w 33 17 0
w 33 -17 1
w 34 33 18 1
w 34 33 -18 0
w 34 -33 18 0
w 34 -33 -18 1
w 35 34 19 1
w 35 34 -19 0
w 35 -34 19 1
w 35 -34 -19 1
w 36 35 20 0
w 36 35 -20 1
w 36 -35 20 1
w 36 -35 -20 1
w 37 36 21 1
w 37 36 -21 1
w 37 -36 21 1
w 37 -36 -21 0
w 38 37 22 1
w 38 37 -22 0
w 38 -37 22 1
w 38 -37 -22 0
w 39 38 23 0.757216
w 39 38 -23 0.211737
w 39 -38 23 0.324632
w 39 -38 -23 0.289353
w 40 39 24 0.690125
w 40 39 -24 0.353187
w 40 -39 24 0.153802
w 40 -39 -24 0.0586283
w 41 40 25 1
w 41 40 -25 0
w 41 -40 25 1
w 41 -40 -25 0
w 42 41 26 0
w 42 41 -26 0
w 42 -41 26 0
w 42 -41 -26 1
w 43 42 27 0
w 43 42 -27 1
w 43 -42 27 1
w 43 -42 -27 0
w 44 43 28 1
w 44 43 -28 1
w 44 -43 28 1
w 44 -43 -28 0
w 45 44 29 1
w 45 44 -29 1
w 45 -44 29 0
w 45 -44 -29 1
w 46 45 30 1
w 46 45 -30 0
w 46 -45 30 1
w 46 -45 -30 1
w 47 46 31 0
w 47 46 -31 0
w 47 -46 31 1
w 47 -46 -31 1
w 48 47 32 0.924661
w 48 47 -32 0.0890346
w 48 -47 32 0.352859
w 48 -47 -32 0.20209
w 49 33 0.0236689
w 49 -33 0.871
w 50 49 34 0
w 50 49 -34 1
w 50 -49 34 0
w 50 -49 -34 0
w 51 50 35 1
w 51 50 -35 0
w 51 -50 35 1
w 51 -50 -35 0
w 52 51 36 0
w 52 51 -36 1
w 52 -51 36 1
w 52 -51 -36 1
w 53 52 37 0
w 53 52 -37 0
w 53 -52 37 0
w 53 -52 -37 1
w 54 53 38 0.262861
w 54 53 -38 0.0393416
w 54 -53 38 0.91019
w 54 -53 -38 0.351895
w 55 54 39 0
w 55 54 -39 1
w 55 -54 39 1
w 55 -54 -39 1
w 56 55 40 0.440599
w 56 55 -40 0.955665
w 56 -55 40 0.0436894
w 56 -55 -40 0.592664
w 57 56 41 1
w 57 56 -41 0
w 57 -56 41 1
w 57 -56 -41 1
w 58 57 42 1
w 58 57 -42 1
w 58 -57 42 0
w 58 -57 -42 1
w 59 58 43 0
w 59 58 -43 1
w 59 -58 43 1
w 59 -58 -43 0
w 60 59 44 0.785814
w 60 59 -44 0.529486
w 60 -59 44 0.881129
w 60 -59 -44 0.696004
w 61 60 45 0.27333
w 61 60 -45 0.808284
w 61 -60 45 0.0395878
w 61 -60 -45 0.6892
w 62 61 46 0.946762
w 62 61 -46 0.129799
w 62 -61 46 0.747229
w 62 -61 -46 0.990451
w 63 62 47 1
w 63 62 -47 0
w 63 -62 47 0
w 63 -62 -47 0
w 64 63 48 1
w 64 63 -48 0
w 64 -63 48 1
w 64 -63 -48 0
w 65 49 1
w 65 -49 0
w 66 65 50 0
w 66 65 -50 0
w 66 -65 50 1
w 66 -65 -50 1
w 67 66 51 1
w 67 66 -51 1
w 67 -66 51 1
w 67 -66 -51 0
w 68 67 52 1
w 68 67 -52 1
w 68 -67 52 0
w 68 -67 -52 0
w 69 68 53 0.907181
w 69 68 -53 0.393778
w 69 -68 53 0.980076
w 69 -68 -53 0.629643
w 70 69 54 1
w 70 69 -54 1
w 70 -69 54 0
w 70 -69 -54 1
w 71 70 55 0
w 71 70 -55 0
w 71 -70 55 0
w 71 -70 -55 1
w 72 71 56 1
w 72 71 -56 0
w 72 -71 56 0
w 72 -71 -56 0
w 73 72 57 0.954679
w 73 72 -57 0.461125
w 73 -72 57 0.69654
w 73 -72 -57 0.00137906
w 74 73 58 0
w 74 73 -58 1
w 74 -73 58 0
w 74 -73 -58 0
w 75 74 59 1
w 75 74 -59 1
w 75 -74 59 0
w 75 -74 -59 0
w 76 75 60 0
w 76 75 -60 1
w 76 -75 60 1
w 76 -75 -60 0
w 77 76 61 0.202576
w 77 76 -61 0.882503
w 77 -76 61 0.163555
w 77 -76 -61 0.623615
w 78 77 62 1
w 78 77 -62 1
w 78 -77 62 0
w 78 -77 -62 1
w 79 78 63 1
w 79 78 -63 0
w 79 -78 63 0
w 79 -78 -63 0
w 80 79 64 0.635192
w 80 79 -64 0.0494493
w 80 -79 64 0.61906
w 80 -79 -64 0.142455
w 81 65 0
w 81 -65 1
w 82 81 66 0
w 82 81 -66 0
w 82 -81 66 1
w 82 -81 -66 0
w 83 82 67 0
w 83 82 -67 1
w 83 -82 67 1
w 83 -82 -67 0
w 84 83 68 0.246284
w 84 83 -68 0.833184
w 84 -83 68 0.695239
w 84 -83 -68 0.448939
w 85 84 69 1
w 85 84 -69 0
w 85 -84 69 1
w 85 -84 -69 0
w 86 85 70 0
w 86 85 -70 0
w 86 -85 70 1
w 86 -85 -70 0
w 87 86 71 0
w 87 86 -71 0
w 87 -86 71 1
w 87 -86 -71 1
w 88 87 72 1
w 88 87 -72 1
w 88 -87 72 0
w 88 -87 -72 1
w 89 88 73 1
w 89 88 -73 1
w 89 -88 73 1
w 89 -88 -73 0
w 90 89 74 1
w 90 89 -74 1
w 90 -89 74 0
w 90 -89 -74 1
w 91 90 75 0
w 91 90 -75 0
w 91 -90 75 0
w 91 -90 -75 1
w 92 91 76 0
w 92 91 -76 1
w 92 -91 76 1
w 92 -91 -76 1
w 93 92 77 0
w 93 92 -77 0
w 93 -92 77 0
w 93 -92 -77 1
w 94 93 78 0
w 94 93 -78 0
w 94 -93 78 0
w 94 -93 -78 1
w 95 94 79 0
w 95 94 -79 0
w 95 -94 79 1
w 95 -94 -79 1
w 96 95 80 0.0918273
w 96 95 -80 0.477075
w 96 -95 80 0.931371
w 96 -95 -80 0.277835
w 97 81 0
w 97 -81 1
w 98 97 82 0
w 98 97 -82 0
w 98 -97 82 0
w 98 -97 -82 1
w 99 98 83 1
w 99 98 -83 1
w 99 -98 83 0
w 99 -98 -83 1
w 100 99 84 0
w 100 99 -84 1
w 100 -99 84 0
w 100 -99 -84 1
w 101 100 85 0.594301
w 101 100 -85 0.567239
w 101 -100 85 0.987184
w 101 -100 -85 0.19005
w 102 101 86 0.884697
w 102 101 -86 0.929054
w 102 -101 86 0.113042
w 102 -101 -86 0.675997
w 103 102 87 0
w 103 102 -87 0
w 103 -102 87 1
w 103 -102 -87 0
w 104 103 88 0
w 104 103 -88 1
w 104 -103 88 1
w 104 -103 -88 0
w 105 104 89 0
w 105 104 -89 1
w 105 -104 89 1
w 105 -104 -89 1
w 106 105 90 0.654316
w 106 105 -90 0.493956
w 106 -105 90 0.189259
w 106 -105 -90 0.78913
w 107 106 91 0.0899887
w 107 106 -91 0.383431
w 107 -106 91 0.528798
w 107 -106 -91 0.077173
w 108 107 92 1
w 108 107 -92 0
w 108 -107 92 0
w 108 -107 -92 1
w 109 108 93 1
w 109 108 -93 0
w 109 -108 93 1
w 109 -108 -93 1
w 110 109 94 0.372985
w 110 109 -94 0.788314
w 110 -109 94 0.250495
w 110 -109 -94 0.865705
w 111 110 95 0
w 111 110 -95 0
w 111 -110 95 0
w 111 -110 -95 1
w 112 111 96 1
w 112 111 -96 0
w 112 -111 96 0
w 112 -111 -96 0
w 113 97 1
w 113 -97 0
w 114 113 98 1
w 114 113 -98 0
w 114 -113 98 1
w 114 -113 -98 1
w 115 114 99 1
w 115 114 -99 1
w 115 -114 99 1
w 115 -114 -99 0
w 116 115 100 1
w 116 115 -100 1
w 116 -115 100 0
w 116 -115 -100 0
w 117 116 101 1
w 117 116 -101 1
w 117 -116 101 0
w 117 -116 -101 0
w 118 117 102 0
w 118 117 -102 0
w 118 -117 102 1
w 118 -117 -102 1
w 119 118 103 0.460499
w 119 118 -103 0.638505
w 119 -118 103 0.813583
w 119 -118 -103 0.194952
w 120 119 104 1
w 120 119 -104 0
w 120 -119 104 0
w 120 -119 -104 0
w 121 120 105 0
w 121 120 -105 0
w 121 -120 105 1
w 121 -120 -105 1
w 122 121 106 0.915421
w 122 121 -106 0.537117
w 122 -121 106 0.807225
w 122 -121 -106 0.454872
w 123 122 107 0
w 123 122 -107 1
w 123 -122 107 0
w 123 -122 -107 0
w 124 123 108 0.422113
w 124 123 -108 0.175925
w 124 -123 108 0.90675
w 124 -123 -108 0.937289
w 125 124 109 1
w 125 124 -109 0
w 125 -124 109 0
w 125 -124 -109 1
w 126 125 110 0
w 126 125 -110 0
w 126 -125 110 0
w 126 -125 -110 1
w 127 126 111 0.338334
w 127 126 -111 0.536417
w 127 -126 111 0.107881
w 127 -126 -111 0.0440085
w 128 127 112 0
w 128 127 -112 0
w 128 -127 112 0
w 128 -127 -112 1
w 129 113 1
w 129 -113 0
w 130 129 114 0
w 130 129 -114 0
w 130 -129 114 0
w 130 -129 -114 1
w 131 130 115 1
w 131 130 -115 0
w 131 -130 115 1
w 131 -130 -115 1
w 132 131 116 0.325719
w 132 131 -116 0.371283
w 132 -131 116 0.870832
w 132 -131 -116 0.763207
w 133 132 117 0
w 133 132 -117 1
w 133 -132 117 0
w 133 -132 -117 0
w 134 133 118 0
w 134 133 -118 0
w 134 -133 118 1
w 134 -133 -118 1
w 135 134 119 1
w 135 134 -119 1
w 135 -134 119 0
w 135 -134 -119 1
w 136 135 120 0
w 136 135 -120 0
w 136 -135 120 1
w 136 -135 -120 0
w 137 136 121 1
w 137 136 -121 1
w 137 -136 121 1
w 137 -136 -121 0
w 138 137 122 0.0445873
w 138 137 -122 0.238941
w 138 -137 122 0.127597
w 138 -137 -122 0.915419
w 139 138 123 1
w 139 138 -123 1
w 139 -138 123 0
w 139 -138 -123 1
w 140 139 124 0.944167
w 140 139 -124 0.885611
w 140 -139 124 0.672078
w 140 -139 -124 0.0492089
w 141 140 125 0
w 141 140 -125 1
w 141 -140 125 0
w 141 -140 -125 0
w 142 141 126 0
w 142 141 -126 1
w 142 -141 126 0
w 142 -141 -126 0
w 143 142 127 0
w 143 142 -127 1
w 143 -142 127 0
w 143 -142 -127 0
w 144 143 128 0
w 144 143 -128 1
w 144 -143 128 1
w 144 -143 -128 1
w 145 129 0
w 145 -129 1
w 146 145 130 0.724111
w 146 145 -130 0.720886
w 146 -145 130 0.839488
w 146 -145 -130 0.668279
w 147 146 131 1
w 147 146 -131 0
w 147 -146 131 1
w 147 -146 -131 1
w 148 147 132 1
w 148 147 -132 1
w 148 -147 132 1
w 148 -147 -132 0
w 149 148 133 0.232504
w 149 148 -133 0.0746899
w 149 -148 133 0.735802
w 149 -148 -133 0.680076
w 150 149 134 0
w 150 149 -134 0
w 150 -149 134 1
w 150 -149 -134 1
w 151 150 135 0
w 151 150 -135 1
w 151 -150 135 0
w 151 -150 -135 0
w 152 151 136 1
w 152 151 -136 0
w 152 -151 136 1
w 152 -151 -136 0
w 153 152 137 0
w 153 152 -137 0
w 153 -152 137 1
w 153 -152 -137 1
w 154 153 138 0.976757
w 154 153 -138 0.0517445
w 154 -153 138 0.889703
w 154 -153 -138 0.842331
w 155 154 139 0.122207
w 155 154 -139 0.91702
w 155 -154 139 0.659697
w 155 -154 -139 0.802284
w 156 155 140 0
w 156 155 -140 1
w 156 -155 140 0
w 156 -155 -140 1
w 157 156 141 1
w 157 156 -141 0
w 157 -156 141 0
w 157 -156 -141 1
w 158 157 142 0
w 158 157 -142 0
w 158 -157 142 1
w 158 -157 -142 0
w 159 158 143 1
w 159 158 -143 0
w 159 -158 143 1
w 159 -158 -143 0
w 160 159 144 0
w 160 159 -144 0
w 160 -159 144 0
w 160 -159 -144 1
w 161 145 1
w 161 -145 0
w 162 161 146 0
w 162 161 -146 0
w 162 -161 146 0
w 162 -161 -146 1
w 163 162 147 1
w 163 162 -147 0
w 163 -162 147 0
w 163 -162 -147 0
w 164 163 148 0.597311
w 164 163 -148 0.156366
w 164 -163 148 0.32126
w 164 -163 -148 0.137705
w 165 164 149 1
w 165 164 -149 1
w 165 -164 149 1
w 165 -164 -149 0
w 166 165 150 0
w 166 165 -150 0
w 166 -165 150 1
w 166 -165 -150 0
w 167 166 151 0
w 167 166 -151 1
w 167 -166 151 0
w 167 -166 -151 0
w 168 167 152 0.249973
w 168 167 -152 0.484659
w 168 -167 152 0.580661
w 168 -167 -152 0.504864
w 169 168 153 0.365653
w 169 168 -153 0.171645
w 169 -168 153 0.573953
w 169 -168 -153 0.459439
w 170 169 154 1
w 170 169 -154 0
w 170 -169 154 0
w 170 -169 -154 0
w 171 170 155 1
w 171 170 -155 1
w 171 -170 155 1
w 171 -170 -155 0
w 172 171 156 1
w 172 171 -156 0
w 172 -171 156 0
w 172 -171 -156 1
w 173 172 157 0.763542
w 173 172 -157 0.82903
w 173 -172 157 0.0311152
w 173 -172 -157 0.975246
w 174 173 158 1
w 174 173 -158 0
w 174 -173 158 1
w 174 -173 -158 0
w 175 174 159 0
w 175 174 -159 0
w 175 -174 159 0
w 175 -174 -159 1
w 176 175 160 1
w 176 175 -160 1
w 176 -175 160 1
w 176 -175 -160 0
w 177 161 0
w 177 -161 1
w 178 177 162 0.729213
w 178 177 -162 0.218185
w 178 -177 162 0.343702
w 178 -177 -162 0.359157
w 179 178 163 1
w 179 178 -163 0
w 179 -178 163 1
w 179 -178 -163 1
w 180 179 164 1
w 180 179 -164 0
w 180 -179 164 1
w 180 -179 -164 0
w 181 180 165 1
w 181 180 -165 1
w 181 -180 165 1
w 181 -180 -165 0
w 182 181 166 0
w 182 181 -166 0
w 182 -181 166 0
w 182 -181 -166 1
w 183 182 167 1
w 183 182 -167 0
w 183 -182 167 0
w 183 -182 -167 1
w 184 183 168 1
w 184 183 -168 1
w 184 -183 168 1
w 184 -183 -168 0
w 185 184 169 1
w 185 184 -169 1
w 185 -184 169 0
w 185 -184 -169 0
w 186 185 170 0.692738
w 186 185 -170 0.312761
w 186 -185 170 0.088502
w 186 -185 -170 0.813193
w 187 186 171 1
w 187 186 -171 0
w 187 -186 171 0
w 187 -186 -171 1
w 188 187 172 0
w 188 187 -172 1
w 188 -187 172 1
w 188 -187 -172 1
w 189 188 173 1
w 189 188 -173 0
w 189 -188 173 1
w 189 -188 -173 0
w 190 189 174 0
w 190 189 -174 1
w 190 -189 174 1
w 190 -189 -174 1
w 191 190 175 0
w 191 190 -175 0
w 191 -190 175 1
w 191 -190 -175 0
w 192 191 176 1
w 192 191 -176 1
w 192 -191 176 1
w 192 -191 -176 0
w 193 177 0
w 193 -177 1
w 194 193 178 0.614551
w 194 193 -178 0.749205
w 194 -193 178 0.545735
w 194 -193 -178 0.865401
w 195 194 179 0
w 195 194 -179 1
w 195 -194 179 0
w 195 -194 -179 0
w 196 195 180 0.0903559
w 196 195 -180 0.422984
w 196 -195 180 0.893738
w 196 -195 -180 0.743911
w 197 196 181 1
w 197 196 -181 0
w 197 -196 181 1
w 197 -196 -181 1
w 198 197 182 0.77826
w 198 197 -182 0.776113
w 198 -197 182 0.989958
w 198 -197 -182 0.337513
w 199 198 183 1
w 199 198 -183 1
w 199 -198 183 1
w 199 -198 -183 0
w 200 199 184 1
w 200 199 -184 1
w 200 -199 184 0
w 200 -199 -184 1
w 201 200 185 1
w 201 200 -185 0
w 201 -200 185 0
w 201 -200 -185 0
w 202 201 186 0
w 202 201 -186 1
w 202 -201 186 0
w 202 -201 -186 0
w 203 202 187 1
w 203 202 -187 0
w 203 -202 187 1
w 203 -202 -187 1
w 204 203 188 1
w 204 203 -188 1
w 204 -203 188 0
w 204 -203 -188 1
w 205 204 189 1
w 205 204 -189 0
w 205 -204 189 0
w 205 -204 -189 1
w 206 205 190 1
w 206 205 -190 0
w 206 -205 190 1
w 206 -205 -190 1
w 207 206 191 0.729872
w 207 206 -191 0.245959
w 207 -206 191 0.74517
w 207 -206 -191 0.339451
w 208 207 192 0
w 208 207 -192 0
w 208 -207 192 0
w 208 -207 -192 1
w 209 193 0
w 209 -193 1
w 210 209 194 0
w 210 209 -194 1
w 210 -209 194 0
w 210 -209 -194 1
w 211 210 195 0
w 211 210 -195 0
w 211 -210 195 0
w 211 -210 -195 1
w 212 211 196 0.103935
w 212 211 -196 0.334571
w 212 -211 196 0.312491
w 212 -211 -196 0.95483
w 213 212 197 0.29474
w 213 212 -197 0.881504
w 213 -212 197 0.705933
w 213 -212 -197 0.0246123
w 214 213 198 1
w 214 213 -198 1
w 214 -213 198 1
w 214 -213 -198 0
w 215 214 199 1
w 215 214 -199 0
w 215 -214 199 0
w 215 -214 -199 0
w 216 215 200 1
w 216 215 -200 0
w 216 -215 200 0
w 216 -215 -200 1
w 217 216 201 1
w 217 216 -201 0
w 217 -216 201 0
w 217 -216 -201 1
w 218 217 202 1
w 218 217 -202 1
w 218 -217 202 0
w 218 -217 -202 1
w 219 218 203 0
w 219 218 -203 0
w 219 -218 203 1
w 219 -218 -203 1
w 220 219 204 0.627737
w 220 219 -204 0.36853
w 220 -219 204 0.347346
w 220 -219 -204 0.410801
w 221 220 205 0.554177
w 221 220 -205 0.00301599
w 221 -220 205 0.479944
w 221 -220 -205 0.684548
w 222 221 206 0
w 222 221 -206 0
w 222 -221 206 1
w 222 -221 -206 0
w 223 222 207 1
w 223 222 -207 1
w 223 -222 207 1
w 223 -222 -207 0
w 224 223 208 0
w 224 223 -208 1
w 224 -223 208 1
w 224 -223 -208 1
w 225 209 0.5481
w 225 -209 0.90045
w 226 225 210 1
w 226 225 -210 1
w 226 -225 210 0
w 226 -225 -210 0
w 227 226 211 1
w 227 226 -211 1
w 227 -226 211 0
w 227 -226 -211 1
w 228 227 212 1
w 228 227 -212 0
w 228 -227 212 0
w 228 -227 -212 1
w 229 228 213 0
w 229 228 -213 0
w 229 -228 213 1
w 229 -228 -213 1
w 230 229 214 0.474425
w 230 229 -214 0.483847
w 230 -229 214 0.730298
w 230 -229 -214 0.752274
w 231 230 215 0.0669055
w 231 230 -215 0.694054
w 231 -230 215 0.780673
w 231 -230 -215 0.615006
w 232 231 216 0
w 232 231 -216 1
w 232 -231 216 1
w 232 -231 -216 0
w 233 232 217 0.709317
w 233 232 -217 0.821164
w 233 -232 217 0.556307
w 233 -232 -217 0.494574
w 234 233 218 0
w 234 233 -218 1
w 234 -233 218 1
w 234 -233 -218 1
w 235 234 219 1
w 235 234 -219 1
w 235 -234 219 1
w 235 -234 -219 0
w 236 235 220 1
w 236 235 -220 0
w 236 -235 220 0
w 236 -235 -220 0
w 237 236 221 1
w 237 236 -221 0
w 237 -236 221 1
w 237 -236 -221 1
w 238 237 222 1
w 238 237 -222 0
w 238 -237 222 1
w 238 -237 -222 1
w 239 238 223 1
w 239 238 -223 0
w 239 -238 223 0
w 239 -238 -223 0
w 240 239 224 1
w 240 239 -224 1
w 240 -239 224 0
w 240 -239 -224 0
w 241 225 1
w 241 -225 0
w 242 241 226 1
w 242 241 -226 1
w 242 -241 226 0
w 242 -241 -226 0
w 243 242 227 1
w 243 242 -227 0
w 243 -242 227 0
w 243 -242 -227 0
w 244 243 228 0.888917
w 244 243 -228 0.269549
w 244 -243 228 0.611887
w 244 -243 -228 0.927455
w 245 244 229 0
w 245 244 -229 1
w 245 -244 229 1
w 245 -244 -229 1
w 246 245 230 1
w 246 245 -230 1
w 246 -245 230 1
w 246 -245 -230 0
w 247 246 231 0
w 247 246 -231 0
w 247 -246 231 0
w 247 -246 -231 1
w 248 247 232 1
w 248 247 -232 1
w 248 -247 232 0
w 248 -247 -232 1
w 249 248 233 1
w 249 248 -233 1
w 249 -248 233 0
w 249 -248 -233 0
w 250 249 234 1
w 250 249 -234 0
w 250 -249 234 1
w 250 -249 -234 0
w 251 250 235 1
w 251 250 -235 1
w 251 -250 235 0
w 251 -250 -235 0
w 252 251 236 0
w 252 251 -236 0
w 252 -251 236 1
w 252 -251 -236 0
w 253 252 237 0.975692
w 253 252 -237 0.845112
w 253 -252 237 0.0612306
w 253 -252 -237 0.172372
w 254 253 238 1
w 254 253 -238 0
w 254 -253 238 1
w 254 -253 -238 1
w 255 254 239 0
w 255 254 -239 1
w 255 -254 239 1
w 255 -254 -239 0
w 256 255 240 1
w 256 255 -240 0
w 256 -255 240 1
w 256 -255 -240 0